p cnf 165 559
c p weight 66 -1 0
c p weight -66 1 0
c p weight 68 6.12323399573676603586882014729198302312846062338790031898128063403419218957424163818359375E-17 0
c p weight -68 1 0
c p weight 69 1 0
c p weight -69 1 0
c p weight 70 -1 0
c p weight -70 1 0
c p weight 72 -1 0
c p weight -72 1 0
c p weight 75 -1 0
c p weight -75 1 0
c p weight 78 -1 0
c p weight -78 1 0
c p weight 81 -1 0
c p weight -81 1 0
c p weight 84 -1 0
c p weight -84 1 0
c p weight 87 -1 0
c p weight -87 1 0
c p weight 90 -1 0
c p weight -90 1 0
c p weight 93 -1 0
c p weight -93 1 0
c p weight 96 -1 0
c p weight -96 1 0
c p weight 99 -1 0
c p weight -99 1 0
c p weight 102 -1 0
c p weight -102 1 0
c p weight 105 -1 0
c p weight -105 1 0
c p weight 108 -1 0
c p weight -108 1 0
c p weight 111 -1 0
c p weight -111 1 0
c p weight 114 -1 0
c p weight -114 1 0
c p weight 117 -1 0
c p weight -117 1 0
c p weight 120 -1 0
c p weight -120 1 0
c p weight 123 -1 0
c p weight -123 1 0
c p weight 126 -1 0
c p weight -126 1 0
c p weight 129 -1 0
c p weight -129 1 0
c p weight 132 -1 0
c p weight -132 1 0
c p weight 135 -1 0
c p weight -135 1 0
c p weight 138 -1 0
c p weight -138 1 0
c p weight 141 -1 0
c p weight -141 1 0
c p weight 144 -1 0
c p weight -144 1 0
c p weight 147 -1 0
c p weight -147 1 0
c p weight 150 -1 0
c p weight -150 1 0
c p weight 153 -1 0
c p weight -153 1 0
c p weight 156 -1 0
c p weight -156 1 0
c p weight 159 -1 0
c p weight -159 1 0
c p weight 162 -1 0
c p weight -162 1 0
c p weight 165 -1 0
c p weight -165 1 0
-63 0
-61 0
-59 0
-57 0
-55 0
-53 0
-51 0
-49 0
-47 0
-45 0
-43 0
-41 0
-39 0
-37 0
-35 0
-33 0
-31 0
-29 0
-27 0
-25 0
-23 0
-21 0
-19 0
-17 0
-15 0
-13 0
-11 0
-9 0
-7 0
-5 0
-3 0
-1 0
65 63 -64 0
65 -63 64 0
-65 63 64 0
-65 -63 -64 0
-66 63 0
-66 64 0
66 -63 -64 0
67 -63 65 0
-67 63 65 0
-68 65 0
67 -68 -63 0
-67 -68 63 0
67 68 63 -65 0
-67 68 -63 -65 0
-69 65 0
67 -69 63 0
-67 -69 -63 0
67 69 -63 -65 0
-67 69 63 -65 0
-70 67 0
-70 65 0
-70 -63 0
70 -67 63 -65 0
71 67 -65 0
71 -67 65 0
-71 67 65 0
-71 -67 -65 0
-72 67 0
-72 65 0
72 -67 -65 0
73 67 -61 0
73 -67 61 0
-73 67 61 0
-73 -67 -61 0
74 71 -62 0
74 -71 62 0
-74 71 62 0
-74 -71 -62 0
-75 67 0
-75 62 0
-75 61 -71 0
-75 -61 71 0
75 -67 61 71 -62 0
75 -67 -61 -71 -62 0
76 73 -59 0
76 -73 59 0
-76 73 59 0
-76 -73 -59 0
77 62 -60 0
77 -62 60 0
-77 62 60 0
-77 -62 -60 0
-78 73 0
-78 60 0
-78 59 -62 0
-78 -59 62 0
78 -73 59 62 -60 0
78 -73 -59 -62 -60 0
79 76 -57 0
79 -76 57 0
-79 76 57 0
-79 -76 -57 0
80 60 -58 0
80 -60 58 0
-80 60 58 0
-80 -60 -58 0
-81 76 0
-81 58 0
-81 57 -60 0
-81 -57 60 0
81 -76 57 60 -58 0
81 -76 -57 -60 -58 0
82 79 -55 0
82 -79 55 0
-82 79 55 0
-82 -79 -55 0
83 58 -56 0
83 -58 56 0
-83 58 56 0
-83 -58 -56 0
-84 79 0
-84 56 0
-84 55 -58 0
-84 -55 58 0
84 -79 55 58 -56 0
84 -79 -55 -58 -56 0
85 82 -53 0
85 -82 53 0
-85 82 53 0
-85 -82 -53 0
86 56 -54 0
86 -56 54 0
-86 56 54 0
-86 -56 -54 0
-87 82 0
-87 54 0
-87 53 -56 0
-87 -53 56 0
87 -82 53 56 -54 0
87 -82 -53 -56 -54 0
88 85 -51 0
88 -85 51 0
-88 85 51 0
-88 -85 -51 0
89 54 -52 0
89 -54 52 0
-89 54 52 0
-89 -54 -52 0
-90 85 0
-90 52 0
-90 51 -54 0
-90 -51 54 0
90 -85 51 54 -52 0
90 -85 -51 -54 -52 0
91 88 -49 0
91 -88 49 0
-91 88 49 0
-91 -88 -49 0
92 52 -50 0
92 -52 50 0
-92 52 50 0
-92 -52 -50 0
-93 88 0
-93 50 0
-93 49 -52 0
-93 -49 52 0
93 -88 49 52 -50 0
93 -88 -49 -52 -50 0
94 91 -47 0
94 -91 47 0
-94 91 47 0
-94 -91 -47 0
95 50 -48 0
95 -50 48 0
-95 50 48 0
-95 -50 -48 0
-96 91 0
-96 48 0
-96 47 -50 0
-96 -47 50 0
96 -91 47 50 -48 0
96 -91 -47 -50 -48 0
97 94 -45 0
97 -94 45 0
-97 94 45 0
-97 -94 -45 0
98 48 -46 0
98 -48 46 0
-98 48 46 0
-98 -48 -46 0
-99 94 0
-99 46 0
-99 45 -48 0
-99 -45 48 0
99 -94 45 48 -46 0
99 -94 -45 -48 -46 0
100 97 -43 0
100 -97 43 0
-100 97 43 0
-100 -97 -43 0
101 46 -44 0
101 -46 44 0
-101 46 44 0
-101 -46 -44 0
-102 97 0
-102 44 0
-102 43 -46 0
-102 -43 46 0
102 -97 43 46 -44 0
102 -97 -43 -46 -44 0
103 100 -41 0
103 -100 41 0
-103 100 41 0
-103 -100 -41 0
104 44 -42 0
104 -44 42 0
-104 44 42 0
-104 -44 -42 0
-105 100 0
-105 42 0
-105 41 -44 0
-105 -41 44 0
105 -100 41 44 -42 0
105 -100 -41 -44 -42 0
106 103 -39 0
106 -103 39 0
-106 103 39 0
-106 -103 -39 0
107 42 -40 0
107 -42 40 0
-107 42 40 0
-107 -42 -40 0
-108 103 0
-108 40 0
-108 39 -42 0
-108 -39 42 0
108 -103 39 42 -40 0
108 -103 -39 -42 -40 0
109 106 -37 0
109 -106 37 0
-109 106 37 0
-109 -106 -37 0
110 40 -38 0
110 -40 38 0
-110 40 38 0
-110 -40 -38 0
-111 106 0
-111 38 0
-111 37 -40 0
-111 -37 40 0
111 -106 37 40 -38 0
111 -106 -37 -40 -38 0
112 109 -35 0
112 -109 35 0
-112 109 35 0
-112 -109 -35 0
113 38 -36 0
113 -38 36 0
-113 38 36 0
-113 -38 -36 0
-114 109 0
-114 36 0
-114 35 -38 0
-114 -35 38 0
114 -109 35 38 -36 0
114 -109 -35 -38 -36 0
115 112 -33 0
115 -112 33 0
-115 112 33 0
-115 -112 -33 0
116 36 -34 0
116 -36 34 0
-116 36 34 0
-116 -36 -34 0
-117 112 0
-117 34 0
-117 33 -36 0
-117 -33 36 0
117 -112 33 36 -34 0
117 -112 -33 -36 -34 0
118 115 -31 0
118 -115 31 0
-118 115 31 0
-118 -115 -31 0
119 34 -32 0
119 -34 32 0
-119 34 32 0
-119 -34 -32 0
-120 115 0
-120 32 0
-120 31 -34 0
-120 -31 34 0
120 -115 31 34 -32 0
120 -115 -31 -34 -32 0
121 118 -29 0
121 -118 29 0
-121 118 29 0
-121 -118 -29 0
122 32 -30 0
122 -32 30 0
-122 32 30 0
-122 -32 -30 0
-123 118 0
-123 30 0
-123 29 -32 0
-123 -29 32 0
123 -118 29 32 -30 0
123 -118 -29 -32 -30 0
124 121 -27 0
124 -121 27 0
-124 121 27 0
-124 -121 -27 0
125 30 -28 0
125 -30 28 0
-125 30 28 0
-125 -30 -28 0
-126 121 0
-126 28 0
-126 27 -30 0
-126 -27 30 0
126 -121 27 30 -28 0
126 -121 -27 -30 -28 0
127 124 -25 0
127 -124 25 0
-127 124 25 0
-127 -124 -25 0
128 28 -26 0
128 -28 26 0
-128 28 26 0
-128 -28 -26 0
-129 124 0
-129 26 0
-129 25 -28 0
-129 -25 28 0
129 -124 25 28 -26 0
129 -124 -25 -28 -26 0
130 127 -23 0
130 -127 23 0
-130 127 23 0
-130 -127 -23 0
131 26 -24 0
131 -26 24 0
-131 26 24 0
-131 -26 -24 0
-132 127 0
-132 24 0
-132 23 -26 0
-132 -23 26 0
132 -127 23 26 -24 0
132 -127 -23 -26 -24 0
133 130 -21 0
133 -130 21 0
-133 130 21 0
-133 -130 -21 0
134 24 -22 0
134 -24 22 0
-134 24 22 0
-134 -24 -22 0
-135 130 0
-135 22 0
-135 21 -24 0
-135 -21 24 0
135 -130 21 24 -22 0
135 -130 -21 -24 -22 0
136 133 -19 0
136 -133 19 0
-136 133 19 0
-136 -133 -19 0
137 22 -20 0
137 -22 20 0
-137 22 20 0
-137 -22 -20 0
-138 133 0
-138 20 0
-138 19 -22 0
-138 -19 22 0
138 -133 19 22 -20 0
138 -133 -19 -22 -20 0
139 136 -17 0
139 -136 17 0
-139 136 17 0
-139 -136 -17 0
140 20 -18 0
140 -20 18 0
-140 20 18 0
-140 -20 -18 0
-141 136 0
-141 18 0
-141 17 -20 0
-141 -17 20 0
141 -136 17 20 -18 0
141 -136 -17 -20 -18 0
142 139 -15 0
142 -139 15 0
-142 139 15 0
-142 -139 -15 0
143 18 -16 0
143 -18 16 0
-143 18 16 0
-143 -18 -16 0
-144 139 0
-144 16 0
-144 15 -18 0
-144 -15 18 0
144 -139 15 18 -16 0
144 -139 -15 -18 -16 0
145 142 -13 0
145 -142 13 0
-145 142 13 0
-145 -142 -13 0
146 16 -14 0
146 -16 14 0
-146 16 14 0
-146 -16 -14 0
-147 142 0
-147 14 0
-147 13 -16 0
-147 -13 16 0
147 -142 13 16 -14 0
147 -142 -13 -16 -14 0
148 145 -11 0
148 -145 11 0
-148 145 11 0
-148 -145 -11 0
149 14 -12 0
149 -14 12 0
-149 14 12 0
-149 -14 -12 0
-150 145 0
-150 12 0
-150 11 -14 0
-150 -11 14 0
150 -145 11 14 -12 0
150 -145 -11 -14 -12 0
151 148 -9 0
151 -148 9 0
-151 148 9 0
-151 -148 -9 0
152 12 -10 0
152 -12 10 0
-152 12 10 0
-152 -12 -10 0
-153 148 0
-153 10 0
-153 9 -12 0
-153 -9 12 0
153 -148 9 12 -10 0
153 -148 -9 -12 -10 0
154 151 -7 0
154 -151 7 0
-154 151 7 0
-154 -151 -7 0
155 10 -8 0
155 -10 8 0
-155 10 8 0
-155 -10 -8 0
-156 151 0
-156 8 0
-156 7 -10 0
-156 -7 10 0
156 -151 7 10 -8 0
156 -151 -7 -10 -8 0
157 154 -5 0
157 -154 5 0
-157 154 5 0
-157 -154 -5 0
158 8 -6 0
158 -8 6 0
-158 8 6 0
-158 -8 -6 0
-159 154 0
-159 6 0
-159 5 -8 0
-159 -5 8 0
159 -154 5 8 -6 0
159 -154 -5 -8 -6 0
160 157 -3 0
160 -157 3 0
-160 157 3 0
-160 -157 -3 0
161 6 -4 0
161 -6 4 0
-161 6 4 0
-161 -6 -4 0
-162 157 0
-162 4 0
-162 3 -6 0
-162 -3 6 0
162 -157 3 6 -4 0
162 -157 -3 -6 -4 0
163 160 -1 0
163 -160 1 0
-163 160 1 0
-163 -160 -1 0
164 4 -2 0
164 -4 2 0
-164 4 2 0
-164 -4 -2 0
-165 160 0
-165 2 0
-165 1 -4 0
-165 -1 4 0
165 -160 1 4 -2 0
165 -160 -1 -4 -2 0
-163 0
-160 0
-164 0
-157 0
-161 0
-154 0
-158 0
-151 0
-155 0
-148 0
-152 0
-145 0
-149 0
-142 0
-146 0
-139 0
-143 0
-136 0
-140 0
-133 0
-137 0
-130 0
-134 0
-127 0
-131 0
-124 0
-128 0
-121 0
-125 0
-118 0
-122 0
-115 0
-119 0
-112 0
-116 0
-109 0
-113 0
-106 0
-110 0
-103 0
-107 0
-100 0
-104 0
-97 0
-101 0
-94 0
-98 0
-91 0
-95 0
-88 0
-92 0
-85 0
-89 0
-82 0
-86 0
-79 0
-83 0
-76 0
-80 0
-73 0
-77 0
-67 0
-74 0
